\ENCODING=ISO-8859-1
\Problem name: ilog.cplex

Minimize
 obj1: 93854 x1 + 104809 x2 + 95535 x3 + 107282 x4 + 97344 x5 + 104782 x6
       + 96201 x7 + 108713 x8 + 105452 x9 + 105970 x10 + 98063 x11 + 101210 x12
       + 100534 x13 + 107816 x14 + 92189 x15 + 100515 x16 + 107285 x17
       + 108871 x18 + 99705 x19 + 107049 x20 + 103325 x21 + 107430 x22
       + 97542 x23 + 92895 x24 + 103915 x25 + 101441 x26 + 104121 x27
       + 106994 x28 + 104154 x29 + 109042 x30 + 98110 x31 + 91306 x32
       + 95461 x33 + 94041 x34 + 107145 x35 + 106505 x36 + 92245 x37
       + 94317 x38 + 102823 x39 + 92205 x40 + 109363 x41 + 95306 x42
       + 93270 x43 + 93750 x44 + 101292 x45 + 105636 x46 + 95241 x47
       + 95286 x48 + 109916 x49 + 97452 x50 + 93996 x51 + 107140 x52
       + 109390 x53 + 90069 x54 + 101053 x55 + 104445 x56 + 103774 x57
       + 102372 x58 + 97480 x59 + 103505 x60 + 92574 x61 + 104649 x62
       + 104853 x63 + 103958 x64 + 104515 x65 + 91121 x66 + 105983 x67
       + 103644 x68 + 90246 x69 + 105381 x70 + 94246 x71 + 106371 x72
       + 103906 x73 + 98943 x74 + 95408 x75 + 107488 x76 + 103381 x77
       + 90606 x78 + 100904 x79 + 100677 x80 + 103099 x81 + 99069 x82
       + 109555 x83 + 106825 x84 + 109959 x85 + 108204 x86 + 98731 x87
       + 95265 x88 + 107783 x89 + 98630 x90 + 109106 x91 + 105837 x92
       + 90873 x93 + 102749 x94 + 100165 x95 + 93964 x96 + 103052 x97
       + 109410 x98 + 97215 x99 + 90372 x100 + 94988 x101 + 99150 x102
       + 104917 x103 + 92066 x104 + 109658 x105 + 91232 x106 + 107183 x107
       + 101836 x108 + 103486 x109 + 109698 x110 + 108803 x111 + 109838 x112
       + 108972 x113 + 107213 x114 + 100270 x115 + 102679 x116 + 103585 x117
       + 102703 x118 + 103991 x119 + 92968 x120 + 105419 x121 + 106694 x122
       + 95956 x123 + 106994 x124 + 94397 x125 + 90584 x126 + 95873 x127
       + 94041 x128 + 102144 x129 + 91095 x130 + 103179 x131 + 95736 x132
       + 96993 x133 + 91736 x134 + 103884 x135 + 90702 x136 + 96472 x137
       + 94228 x138 + 106706 x139 + 102024 x140 + 101521 x141 + 105388 x142
       + 91615 x143 + 100207 x144 + 104892 x145 + 104651 x146 + 94566 x147
       + 90741 x148 + 109356 x149 + 95434 x150 + 92376 x151 + 93235 x152
       + 99466 x153 + 108756 x154 + 105193 x155 + 102104 x156 + 94402 x157
       + 93264 x158 + 93083 x159 + 92356 x160 + 108823 x161 + 92327 x162
       + 107948 x163 + 98310 x164 + 103658 x165 + 95825 x166 + 92338 x167
       + 107924 x168 + 99419 x169 + 102004 x170 + 92678 x171 + 100882 x172
       + 90898 x173 + 93017 x174 + 96001 x175 + 94730 x176 + 103991 x177
       + 96742 x178 + 106492 x179 + 90077 x180 + 103232 x181 + 109187 x182
       + 104341 x183 + 100974 x184 + 102652 x185 + 102721 x186 + 90890 x187
       + 102916 x188 + 104187 x189 + 99302 x190 + 103119 x191 + 98029 x192
       + 109326 x193 + 99360 x194 + 99776 x195 + 108486 x196 + 90538 x197
       + 98083 x198 + 93814 x199 + 107560 x200 + 98281 x201 + 98447 x202
       + 91022 x203 + 98017 x204 + 105350 x205 + 95556 x206 + 91791 x207
       + 95200 x208 + 96005 x209 + 93219 x210 + 97059 x211 + 109119 x212
       + 109646 x213 + 91826 x214 + 94629 x215 + 103269 x216 + 101825 x217
       + 100362 x218 + 97860 x219 + 97034 x220 + 108970 x221 + 94802 x222
       + 105168 x223 + 93192 x224 + 97452 x225 + 90117 x226 + 105808 x227
       + 92413 x228 + 102490 x229 + 93809 x230 + 95096 x231 + 102559 x232
       + 97857 x233 + 105126 x234 + 100524 x235 + 102215 x236 + 103489 x237
       + 96026 x238 + 99152 x239 + 95042 x240 + 94437 x241 + 105055 x242
       + 97712 x243 + 95022 x244 + 106363 x245 + 109492 x246 + 98277 x247
       + 109128 x248 + 92377 x249 + 109809 x250 + 107173 x251 + 109009 x252
       + 94525 x253 + 95224 x254 + 99589 x255 + 97721 x256 + 109135 x257
       + 107494 x258 + 101425 x259 + 92555 x260 + 107507 x261 + 97122 x262
       + 92551 x263 + 93052 x264 + 98045 x265 + 109256 x266 + 103491 x267
       + 99688 x268 + 106618 x269 + 99532 x270 + 91769 x271 + 102044 x272
       + 99755 x273 + 92445 x274 + 92312 x275 + 100484 x276 + 108723 x277
       + 97846 x278 + 100039 x279 + 91165 x280 + 91653 x281 + 94756 x282
       + 102199 x283 + 90602 x284 + 95542 x285 + 95945 x286 + 93007 x287
       + 103099 x288 + 90338 x289 + 101558 x290 + 93797 x291 + 101994 x292
       + 103223 x293 + 95609 x294 + 108169 x295 + 104004 x296 + 102841 x297
       + 95211 x298 + 103498 x299 + 69240 x300 + 21141 x301 + 20321 x302
       + 20280 x303 + 19812 x304 + 19315 x305 + 19696 x306 + 19470 x307
       + 19115 x308 + 18131 x309 + 19987 x310 + 19572 x311 + 21923 x312
       + 21717 x313 + 21384 x314 + 19527 x315 + 18284 x316 + 20649 x317
       + 18909 x318 + 21085 x319 + 18520 x320 + 19271 x321 + 18675 x322
       + 20050 x323 + 20640 x324 + 18545 x325 + 20122 x326 + 21040 x327
       + 19620 x328 + 20080 x329 + 18345 x330 + 20698 x331 + 21900 x332
       + 19617 x333 + 18454 x334 + 19533 x335 + 21462 x336 + 19190 x337
       + 19090 x338 + 18257 x339 + 20223 x340 + 18547 x341 + 18799 x342
       + 18513 x343 + 19232 x344 + 20130 x345 + 18884 x346 + 20300 x347
       + 20312 x348 + 18018 x349 + 19700 x350 + 21176 x351 + 20239 x352
       + 19703 x353 + 18033 x354 + 19498 x355 + 19499 x356 + 18417 x357
       + 19261 x358 + 21476 x359 + 36613 x360
Subject To
 c1:   - x1 - x7 - x8 + x15 + x24 - x27 - x30 + x35 + x36 + x45 + x55 + x57
       - x59  = 0
 c2:   - x61 - x67 - x68 + x75 + x84 - x87 - x90 + x95 + x96 + x105 + x115
       + x117 - x119  = 0
 c3:   - x121 - x127 - x128 + x135 + x144 - x147 - x150 + x155 + x156 + x165
       + x175 + x177 - x179  = 1
 c4:   - x181 - x187 - x188 + x195 + x204 - x207 - x210 + x215 + x216 + x225
       + x235 + x237 - x239  = -1
 c5:   - x241 - x247 - x248 + x255 + x264 - x267 - x270 + x275 + x276 + x285
       + x295 + x297 - x299  = 0
 c6:   x2 + x7 - x14 + x25 - x26 + x28 + x32 - x37 + x43 - x44 + x50 + x51
       + x52  = 0
 c7:   x62 + x67 - x74 + x85 - x86 + x88 + x92 - x97 + x103 - x104 + x110
       + x111 + x112  = 0
 c8:   x122 + x127 - x134 + x145 - x146 + x148 + x152 - x157 + x163 - x164
       + x170 + x171 + x172  = 0
 c9:   x182 + x187 - x194 + x205 - x206 + x208 + x212 - x217 + x223 - x224
       + x230 + x231 + x232  = 0
 c10:  x242 + x247 - x254 + x265 - x266 + x268 + x272 - x277 + x283 - x284
       + x290 + x291 + x292  = 0
 c11:  x1 + x4 - x5 + x19 + x21 - x29 - x38 + x42 - x50 + x54 - x56 - x57 + x58
        = 0
 c12:  x61 + x64 - x65 + x79 + x81 - x89 - x98 + x102 - x110 + x114 - x116
       - x117 + x118  = 0
 c13:  x121 + x124 - x125 + x139 + x141 - x149 - x158 + x162 - x170 + x174
       - x176 - x177 + x178  = 0
 c14:  x181 + x184 - x185 + x199 + x201 - x209 - x218 + x222 - x230 + x234
       - x236 - x237 + x238  = 0
 c15:  x241 + x244 - x245 + x259 + x261 - x269 - x278 + x282 - x290 + x294
       - x296 - x297 + x298  = 0
 c16:  - x4 - x10 + x12 + x26 + x30 - x33 - x35 - x39 + x41 - x47 + x49 - x52
       + x56 - x60  = 0
 c17:  - x64 - x70 + x72 + x86 + x90 - x93 - x95 - x99 + x101 - x107 + x109
       - x112 + x116 - x120  = 1
 c18:  - x124 - x130 + x132 + x146 + x150 - x153 - x155 - x159 + x161 - x167
       + x169 - x172 + x176 - x180  = 0
 c19:  - x184 - x190 + x192 + x206 + x210 - x213 - x215 - x219 + x221 - x227
       + x229 - x232 + x236 - x240  = 1
 c20:  - x244 - x250 + x252 + x266 + x270 - x273 - x275 - x279 + x281 - x287
       + x289 - x292 + x296 - x300  = 1
 c21:  - x3 + x5 - x15 - x16 + x22 - x34 + x37 - x46 - x51 - x58 + x60  = 0
 c22:  - x63 + x65 - x75 - x76 + x82 - x94 + x97 - x106 - x111 - x118 + x120
        = 0
 c23:  - x123 + x125 - x135 - x136 + x142 - x154 + x157 - x166 - x171 - x178
       + x180  = 0
 c24:  - x183 + x185 - x195 - x196 + x202 - x214 + x217 - x226 - x231 - x238
       + x240  = 0
 c25:  - x243 + x245 - x255 - x256 + x262 - x274 + x277 - x286 - x291 - x298
       + x300  = 0
 c26:  - x9 + x10 - x11 + x16 - x19 - x20 - x24 + x27 + x40 - x41 - x43 - x48
        = 0
 c27:  - x69 + x70 - x71 + x76 - x79 - x80 - x84 + x87 + x100 - x101 - x103
       - x108  = 0
 c28:  - x129 + x130 - x131 + x136 - x139 - x140 - x144 + x147 + x160 - x161
       - x163 - x168  = 0
 c29:  - x189 + x190 - x191 + x196 - x199 - x200 - x204 + x207 + x220 - x221
       - x223 - x228  = 0
 c30:  - x249 + x250 - x251 + x256 - x259 - x260 - x264 + x267 + x280 - x281
       - x283 - x288  = 0
 c31:  x9 - x13 + x17 + x23 - x32 + x34 - x40 - x42 - x53 - x55 + x59  = 0
 c32:  x69 - x73 + x77 + x83 - x92 + x94 - x100 - x102 - x113 - x115 + x119
        = -1
 c33:  x129 - x133 + x137 + x143 - x152 + x154 - x160 - x162 - x173 - x175
       + x179  = 0
 c34:  x189 - x193 + x197 + x203 - x212 + x214 - x220 - x222 - x233 - x235
       + x239  = 0
 c35:  x249 - x253 + x257 + x263 - x272 + x274 - x280 - x282 - x293 - x295
       + x299  = 0
 c36:  x6 - x12 - x18 - x23 - x25 + x31 + x33 + x38 - x45 + x46 + x48  = 1
 c37:  x66 - x72 - x78 - x83 - x85 + x91 + x93 + x98 - x105 + x106 + x108  = 0
 c38:  x126 - x132 - x138 - x143 - x145 + x151 + x153 + x158 - x165 + x166
       + x168  = 0
 c39:  x186 - x192 - x198 - x203 - x205 + x211 + x213 + x218 - x225 + x226
       + x228  = 0
 c40:  x246 - x252 - x258 - x263 - x265 + x271 + x273 + x278 - x285 + x286
       + x288  = 0
 c41:  - x6 + x8 + x11 + x13 + x18 - x28 + x29 - x36 + x39 + x44 - x49 - x54
        = 0
 c42:  - x66 + x68 + x71 + x73 + x78 - x88 + x89 - x96 + x99 + x104 - x109
       - x114  = 0
 c43:  - x126 + x128 + x131 + x133 + x138 - x148 + x149 - x156 + x159 + x164
       - x169 - x174  = -1
 c44:  - x186 + x188 + x191 + x193 + x198 - x208 + x209 - x216 + x219 + x224
       - x229 - x234  = 0
 c45:  - x246 + x248 + x251 + x253 + x258 - x268 + x269 - x276 + x279 + x284
       - x289 - x294  = -1
 c46:  - x2 + x3 + x14 - x17 + x20 - x21 - x22 - x31 + x47 + x53  = -1
 c47:  - x62 + x63 + x74 - x77 + x80 - x81 - x82 - x91 + x107 + x113  = 0
 c48:  - x122 + x123 + x134 - x137 + x140 - x141 - x142 - x151 + x167 + x173
        = 0
 c49:  - x182 + x183 + x194 - x197 + x200 - x201 - x202 - x211 + x227 + x233
        = 0
 c50:  - x242 + x243 + x254 - x257 + x260 - x261 - x262 - x271 + x287 + x293
        = 0
 c51:  4 x1 + 4 x61 + 4 x121 + 4 x181 + 4 x241 - 2 x301 <= 0
 c52:  4 x2 + 4 x62 + 4 x122 + 4 x182 + 4 x242 - 2 x302 <= 0
 c53:  4 x3 + 4 x63 + 4 x123 + 4 x183 + 4 x243 - 2 x303 <= 0
 c54:  4 x4 + 4 x64 + 4 x124 + 4 x184 + 4 x244 - 2 x304 <= 0
 c55:  4 x5 + 4 x65 + 4 x125 + 4 x185 + 4 x245 - 2 x305 <= 0
 c56:  4 x6 + 4 x66 + 4 x126 + 4 x186 + 4 x246 - 2 x306 <= 0
 c57:  4 x7 + 4 x67 + 4 x127 + 4 x187 + 4 x247 - 2 x307 <= 0
 c58:  4 x8 + 4 x68 + 4 x128 + 4 x188 + 4 x248 - 2 x308 <= 0
 c59:  4 x9 + 4 x69 + 4 x129 + 4 x189 + 4 x249 - 2 x309 <= 0
 c60:  4 x10 + 4 x70 + 4 x130 + 4 x190 + 4 x250 - 2 x310 <= 0
 c61:  4 x11 + 4 x71 + 4 x131 + 4 x191 + 4 x251 - 2 x311 <= 0
 c62:  4 x12 + 4 x72 + 4 x132 + 4 x192 + 4 x252 - 2 x312 <= 0
 c63:  4 x13 + 4 x73 + 4 x133 + 4 x193 + 4 x253 - 2 x313 <= 0
 c64:  4 x14 + 4 x74 + 4 x134 + 4 x194 + 4 x254 - 2 x314 <= 0
 c65:  4 x15 + 4 x75 + 4 x135 + 4 x195 + 4 x255 - 2 x315 <= 0
 c66:  4 x16 + 4 x76 + 4 x136 + 4 x196 + 4 x256 - 2 x316 <= 0
 c67:  4 x17 + 4 x77 + 4 x137 + 4 x197 + 4 x257 - 2 x317 <= 0
 c68:  4 x18 + 4 x78 + 4 x138 + 4 x198 + 4 x258 - 2 x318 <= 0
 c69:  4 x19 + 4 x79 + 4 x139 + 4 x199 + 4 x259 - 2 x319 <= 0
 c70:  4 x20 + 4 x80 + 4 x140 + 4 x200 + 4 x260 - 2 x320 <= 0
 c71:  4 x21 + 4 x81 + 4 x141 + 4 x201 + 4 x261 - 2 x321 <= 0
 c72:  4 x22 + 4 x82 + 4 x142 + 4 x202 + 4 x262 - 2 x322 <= 0
 c73:  4 x23 + 4 x83 + 4 x143 + 4 x203 + 4 x263 - 2 x323 <= 0
 c74:  4 x24 + 4 x84 + 4 x144 + 4 x204 + 4 x264 - 2 x324 <= 0
 c75:  4 x25 + 4 x85 + 4 x145 + 4 x205 + 4 x265 - 2 x325 <= 0
 c76:  4 x26 + 4 x86 + 4 x146 + 4 x206 + 4 x266 - 2 x326 <= 0
 c77:  4 x27 + 4 x87 + 4 x147 + 4 x207 + 4 x267 - 2 x327 <= 0
 c78:  4 x28 + 4 x88 + 4 x148 + 4 x208 + 4 x268 - 2 x328 <= 0
 c79:  4 x29 + 4 x89 + 4 x149 + 4 x209 + 4 x269 - 2 x329 <= 0
 c80:  4 x30 + 4 x90 + 4 x150 + 4 x210 + 4 x270 - 2 x330 <= 0
 c81:  4 x31 + 4 x91 + 4 x151 + 4 x211 + 4 x271 - 2 x331 <= 0
 c82:  4 x32 + 4 x92 + 4 x152 + 4 x212 + 4 x272 - 2 x332 <= 0
 c83:  4 x33 + 4 x93 + 4 x153 + 4 x213 + 4 x273 - 2 x333 <= 0
 c84:  4 x34 + 4 x94 + 4 x154 + 4 x214 + 4 x274 - 2 x334 <= 0
 c85:  4 x35 + 4 x95 + 4 x155 + 4 x215 + 4 x275 - 2 x335 <= 0
 c86:  4 x36 + 4 x96 + 4 x156 + 4 x216 + 4 x276 - 2 x336 <= 0
 c87:  4 x37 + 4 x97 + 4 x157 + 4 x217 + 4 x277 - 2 x337 <= 0
 c88:  4 x38 + 4 x98 + 4 x158 + 4 x218 + 4 x278 - 2 x338 <= 0
 c89:  4 x39 + 4 x99 + 4 x159 + 4 x219 + 4 x279 - 2 x339 <= 0
 c90:  4 x40 + 4 x100 + 4 x160 + 4 x220 + 4 x280 - 2 x340 <= 0
 c91:  4 x41 + 4 x101 + 4 x161 + 4 x221 + 4 x281 - 2 x341 <= 0
 c92:  4 x42 + 4 x102 + 4 x162 + 4 x222 + 4 x282 - 2 x342 <= 0
 c93:  4 x43 + 4 x103 + 4 x163 + 4 x223 + 4 x283 - 2 x343 <= 0
 c94:  4 x44 + 4 x104 + 4 x164 + 4 x224 + 4 x284 - 2 x344 <= 0
 c95:  4 x45 + 4 x105 + 4 x165 + 4 x225 + 4 x285 - 2 x345 <= 0
 c96:  4 x46 + 4 x106 + 4 x166 + 4 x226 + 4 x286 - 2 x346 <= 0
 c97:  4 x47 + 4 x107 + 4 x167 + 4 x227 + 4 x287 - 2 x347 <= 0
 c98:  4 x48 + 4 x108 + 4 x168 + 4 x228 + 4 x288 - 2 x348 <= 0
 c99:  4 x49 + 4 x109 + 4 x169 + 4 x229 + 4 x289 - 2 x349 <= 0
 c100: 4 x50 + 4 x110 + 4 x170 + 4 x230 + 4 x290 - 2 x350 <= 0
 c101: 4 x51 + 4 x111 + 4 x171 + 4 x231 + 4 x291 - 2 x351 <= 0
 c102: 4 x52 + 4 x112 + 4 x172 + 4 x232 + 4 x292 - 2 x352 <= 0
 c103: 4 x53 + 4 x113 + 4 x173 + 4 x233 + 4 x293 - 2 x353 <= 0
 c104: 4 x54 + 4 x114 + 4 x174 + 4 x234 + 4 x294 - 2 x354 <= 0
 c105: 4 x55 + 4 x115 + 4 x175 + 4 x235 + 4 x295 - 2 x355 <= 0
 c106: 4 x56 + 4 x116 + 4 x176 + 4 x236 + 4 x296 - 2 x356 <= 0
 c107: 4 x57 + 4 x117 + 4 x177 + 4 x237 + 4 x297 - 2 x357 <= 0
 c108: 4 x58 + 4 x118 + 4 x178 + 4 x238 + 4 x298 - 2 x358 <= 0
 c109: 4 x59 + 4 x119 + 4 x179 + 4 x239 + 4 x299 - 2 x359 <= 0
 c110: 4 x60 + 4 x120 + 4 x180 + 4 x240 + 4 x300 - 2 x360 <= 0
Bounds
 0 <= x1 <= 1
 0 <= x2 <= 1
 0 <= x3 <= 1
 0 <= x4 <= 1
 0 <= x5 <= 1
 0 <= x6 <= 1
 0 <= x7 <= 1
 0 <= x8 <= 1
 0 <= x9 <= 1
 0 <= x10 <= 1
 0 <= x11 <= 1
 0 <= x12 <= 1
 0 <= x13 <= 1
 0 <= x14 <= 1
 0 <= x15 <= 1
 0 <= x16 <= 1
 0 <= x17 <= 1
 0 <= x18 <= 1
 0 <= x19 <= 1
 0 <= x20 <= 1
 0 <= x21 <= 1
 0 <= x22 <= 1
 0 <= x23 <= 1
 0 <= x24 <= 1
 0 <= x25 <= 1
 0 <= x26 <= 1
 0 <= x27 <= 1
 0 <= x28 <= 1
 0 <= x29 <= 1
 0 <= x30 <= 1
 0 <= x31 <= 1
 0 <= x32 <= 1
 0 <= x33 <= 1
 0 <= x34 <= 1
 0 <= x35 <= 1
 0 <= x36 <= 1
 0 <= x37 <= 1
 0 <= x38 <= 1
 0 <= x39 <= 1
 0 <= x40 <= 1
 0 <= x41 <= 1
 0 <= x42 <= 1
 0 <= x43 <= 1
 0 <= x44 <= 1
 0 <= x45 <= 1
 0 <= x46 <= 1
 0 <= x47 <= 1
 0 <= x48 <= 1
 0 <= x49 <= 1
 0 <= x50 <= 1
 0 <= x51 <= 1
 0 <= x52 <= 1
 0 <= x53 <= 1
 0 <= x54 <= 1
 0 <= x55 <= 1
 0 <= x56 <= 1
 0 <= x57 <= 1
 0 <= x58 <= 1
 0 <= x59 <= 1
 0 <= x60 <= 1
 0 <= x61 <= 1
 0 <= x62 <= 1
 0 <= x63 <= 1
 0 <= x64 <= 1
 0 <= x65 <= 1
 0 <= x66 <= 1
 0 <= x67 <= 1
 0 <= x68 <= 1
 0 <= x69 <= 1
 0 <= x70 <= 1
 0 <= x71 <= 1
 0 <= x72 <= 1
 0 <= x73 <= 1
 0 <= x74 <= 1
 0 <= x75 <= 1
 0 <= x76 <= 1
 0 <= x77 <= 1
 0 <= x78 <= 1
 0 <= x79 <= 1
 0 <= x80 <= 1
 0 <= x81 <= 1
 0 <= x82 <= 1
 0 <= x83 <= 1
 0 <= x84 <= 1
 0 <= x85 <= 1
 0 <= x86 <= 1
 0 <= x87 <= 1
 0 <= x88 <= 1
 0 <= x89 <= 1
 0 <= x90 <= 1
 0 <= x91 <= 1
 0 <= x92 <= 1
 0 <= x93 <= 1
 0 <= x94 <= 1
 0 <= x95 <= 1
 0 <= x96 <= 1
 0 <= x97 <= 1
 0 <= x98 <= 1
 0 <= x99 <= 1
 0 <= x100 <= 1
 0 <= x101 <= 1
 0 <= x102 <= 1
 0 <= x103 <= 1
 0 <= x104 <= 1
 0 <= x105 <= 1
 0 <= x106 <= 1
 0 <= x107 <= 1
 0 <= x108 <= 1
 0 <= x109 <= 1
 0 <= x110 <= 1
 0 <= x111 <= 1
 0 <= x112 <= 1
 0 <= x113 <= 1
 0 <= x114 <= 1
 0 <= x115 <= 1
 0 <= x116 <= 1
 0 <= x117 <= 1
 0 <= x118 <= 1
 0 <= x119 <= 1
 0 <= x120 <= 1
 0 <= x121 <= 1
 0 <= x122 <= 1
 0 <= x123 <= 1
 0 <= x124 <= 1
 0 <= x125 <= 1
 0 <= x126 <= 1
 0 <= x127 <= 1
 0 <= x128 <= 1
 0 <= x129 <= 1
 0 <= x130 <= 1
 0 <= x131 <= 1
 0 <= x132 <= 1
 0 <= x133 <= 1
 0 <= x134 <= 1
 0 <= x135 <= 1
 0 <= x136 <= 1
 0 <= x137 <= 1
 0 <= x138 <= 1
 0 <= x139 <= 1
 0 <= x140 <= 1
 0 <= x141 <= 1
 0 <= x142 <= 1
 0 <= x143 <= 1
 0 <= x144 <= 1
 0 <= x145 <= 1
 0 <= x146 <= 1
 0 <= x147 <= 1
 0 <= x148 <= 1
 0 <= x149 <= 1
 0 <= x150 <= 1
 0 <= x151 <= 1
 0 <= x152 <= 1
 0 <= x153 <= 1
 0 <= x154 <= 1
 0 <= x155 <= 1
 0 <= x156 <= 1
 0 <= x157 <= 1
 0 <= x158 <= 1
 0 <= x159 <= 1
 0 <= x160 <= 1
 0 <= x161 <= 1
 0 <= x162 <= 1
 0 <= x163 <= 1
 0 <= x164 <= 1
 0 <= x165 <= 1
 0 <= x166 <= 1
 0 <= x167 <= 1
 0 <= x168 <= 1
 0 <= x169 <= 1
 0 <= x170 <= 1
 0 <= x171 <= 1
 0 <= x172 <= 1
 0 <= x173 <= 1
 0 <= x174 <= 1
 0 <= x175 <= 1
 0 <= x176 <= 1
 0 <= x177 <= 1
 0 <= x178 <= 1
 0 <= x179 <= 1
 0 <= x180 <= 1
 0 <= x181 <= 1
 0 <= x182 <= 1
 0 <= x183 <= 1
 0 <= x184 <= 1
 0 <= x185 <= 1
 0 <= x186 <= 1
 0 <= x187 <= 1
 0 <= x188 <= 1
 0 <= x189 <= 1
 0 <= x190 <= 1
 0 <= x191 <= 1
 0 <= x192 <= 1
 0 <= x193 <= 1
 0 <= x194 <= 1
 0 <= x195 <= 1
 0 <= x196 <= 1
 0 <= x197 <= 1
 0 <= x198 <= 1
 0 <= x199 <= 1
 0 <= x200 <= 1
 0 <= x201 <= 1
 0 <= x202 <= 1
 0 <= x203 <= 1
 0 <= x204 <= 1
 0 <= x205 <= 1
 0 <= x206 <= 1
 0 <= x207 <= 1
 0 <= x208 <= 1
 0 <= x209 <= 1
 0 <= x210 <= 1
 0 <= x211 <= 1
 0 <= x212 <= 1
 0 <= x213 <= 1
 0 <= x214 <= 1
 0 <= x215 <= 1
 0 <= x216 <= 1
 0 <= x217 <= 1
 0 <= x218 <= 1
 0 <= x219 <= 1
 0 <= x220 <= 1
 0 <= x221 <= 1
 0 <= x222 <= 1
 0 <= x223 <= 1
 0 <= x224 <= 1
 0 <= x225 <= 1
 0 <= x226 <= 1
 0 <= x227 <= 1
 0 <= x228 <= 1
 0 <= x229 <= 1
 0 <= x230 <= 1
 0 <= x231 <= 1
 0 <= x232 <= 1
 0 <= x233 <= 1
 0 <= x234 <= 1
 0 <= x235 <= 1
 0 <= x236 <= 1
 0 <= x237 <= 1
 0 <= x238 <= 1
 0 <= x239 <= 1
 0 <= x240 <= 1
 0 <= x241 <= 1
 0 <= x242 <= 1
 0 <= x243 <= 1
 0 <= x244 <= 1
 0 <= x245 <= 1
 0 <= x246 <= 1
 0 <= x247 <= 1
 0 <= x248 <= 1
 0 <= x249 <= 1
 0 <= x250 <= 1
 0 <= x251 <= 1
 0 <= x252 <= 1
 0 <= x253 <= 1
 0 <= x254 <= 1
 0 <= x255 <= 1
 0 <= x256 <= 1
 0 <= x257 <= 1
 0 <= x258 <= 1
 0 <= x259 <= 1
 0 <= x260 <= 1
 0 <= x261 <= 1
 0 <= x262 <= 1
 0 <= x263 <= 1
 0 <= x264 <= 1
 0 <= x265 <= 1
 0 <= x266 <= 1
 0 <= x267 <= 1
 0 <= x268 <= 1
 0 <= x269 <= 1
 0 <= x270 <= 1
 0 <= x271 <= 1
 0 <= x272 <= 1
 0 <= x273 <= 1
 0 <= x274 <= 1
 0 <= x275 <= 1
 0 <= x276 <= 1
 0 <= x277 <= 1
 0 <= x278 <= 1
 0 <= x279 <= 1
 0 <= x280 <= 1
 0 <= x281 <= 1
 0 <= x282 <= 1
 0 <= x283 <= 1
 0 <= x284 <= 1
 0 <= x285 <= 1
 0 <= x286 <= 1
 0 <= x287 <= 1
 0 <= x288 <= 1
 0 <= x289 <= 1
 0 <= x290 <= 1
 0 <= x291 <= 1
 0 <= x292 <= 1
 0 <= x293 <= 1
 0 <= x294 <= 1
 0 <= x295 <= 1
 0 <= x296 <= 1
 0 <= x297 <= 1
 0 <= x298 <= 1
 0 <= x299 <= 1
 0 <= x300 <= 1
 0 <= x301 <= 1
 0 <= x302 <= 1
 0 <= x303 <= 1
 0 <= x304 <= 1
 0 <= x305 <= 1
 0 <= x306 <= 1
 0 <= x307 <= 1
 0 <= x308 <= 1
 0 <= x309 <= 1
 0 <= x310 <= 1
 0 <= x311 <= 1
 0 <= x312 <= 1
 0 <= x313 <= 1
 0 <= x314 <= 1
 0 <= x315 <= 1
 0 <= x316 <= 1
 0 <= x317 <= 1
 0 <= x318 <= 1
 0 <= x319 <= 1
 0 <= x320 <= 1
 0 <= x321 <= 1
 0 <= x322 <= 1
 0 <= x323 <= 1
 0 <= x324 <= 1
 0 <= x325 <= 1
 0 <= x326 <= 1
 0 <= x327 <= 1
 0 <= x328 <= 1
 0 <= x329 <= 1
 0 <= x330 <= 1
 0 <= x331 <= 1
 0 <= x332 <= 1
 0 <= x333 <= 1
 0 <= x334 <= 1
 0 <= x335 <= 1
 0 <= x336 <= 1
 0 <= x337 <= 1
 0 <= x338 <= 1
 0 <= x339 <= 1
 0 <= x340 <= 1
 0 <= x341 <= 1
 0 <= x342 <= 1
 0 <= x343 <= 1
 0 <= x344 <= 1
 0 <= x345 <= 1
 0 <= x346 <= 1
 0 <= x347 <= 1
 0 <= x348 <= 1
 0 <= x349 <= 1
 0 <= x350 <= 1
 0 <= x351 <= 1
 0 <= x352 <= 1
 0 <= x353 <= 1
 0 <= x354 <= 1
 0 <= x355 <= 1
 0 <= x356 <= 1
 0 <= x357 <= 1
 0 <= x358 <= 1
 0 <= x359 <= 1
 0 <= x360 <= 1
Binaries
 x301  x302  x303  x304  x305  x306  x307  x308  x309  x310  x311  x312  x313 
 x314  x315  x316  x317  x318  x319  x320  x321  x322  x323  x324  x325  x326 
 x327  x328  x329  x330  x331  x332  x333  x334  x335  x336  x337  x338  x339 
 x340  x341  x342  x343  x344  x345  x346  x347  x348  x349  x350  x351  x352 
 x353  x354  x355  x356  x357  x358  x359  x360 
End
